Version identifier: 20.1.0.0 | 2020-11-10 | 9bedb6d68
Tried aggregator 2 times.
MIP Presolve eliminated 1833 rows and 914 columns.
MIP Presolve modified 4750 coefficients.
Aggregator did 187 substitutions.
Reduced MIP has 2789 rows, 2214 columns, and 9144 nonzeros.
Reduced MIP has 452 binaries, 1762 generals, 0 SOSs, and 0 indicators.
Presolve time = 0.03 sec. (11.30 ticks)
Probing fixed 60 vars, tightened 670 bounds.
Probing time = 0.00 sec. (1.97 ticks)
Tried aggregator 2 times.
Detecting symmetries...
MIP Presolve eliminated 1170 rows and 112 columns.
MIP Presolve modified 257 coefficients.
Aggregator did 32 substitutions.
Reduced MIP has 1587 rows, 2070 columns, and 5178 nonzeros.
Reduced MIP has 702 binaries, 1368 generals, 0 SOSs, and 0 indicators.
Presolve time = 0.02 sec. (7.67 ticks)
Probing time = 0.00 sec. (0.44 ticks)
Clique table members: 65.
MIP emphasis: balance optimality and feasibility.
MIP search method: dynamic search.
Parallel mode: deterministic, using up to 24 threads.
Root relaxation solution time = 0.02 sec. (4.44 ticks)

        Nodes                                         Cuts/
   Node  Left     Objective  IInf  Best Integer    Best Bound    ItCnt     Gap

*     0+    0                           45.0000        0.0000           100.00%
      0     0        0.0000   101       45.0000        0.0000      418  100.00%
      0     0        0.0000   174       45.0000     Cuts: 168      568  100.00%
*     0+    0                           10.0000        0.0000           100.00%
      0     0        cutoff             10.0000       10.0000      781    0.00%
Elapsed time = 0.78 sec. (129.09 ticks, tree = 0.01 MB, solutions = 2)

Cover cuts applied:  2
Implied bound cuts applied:  89
Flow cuts applied:  6
Mixed integer rounding cuts applied:  31
Zero-half cuts applied:  171
Lift and project cuts applied:  20
Gomory fractional cuts applied:  65

Root node processing (before b&c):
  Real time             =    0.78 sec. (129.25 ticks)
Parallel b&c, 24 threads:
  Real time             =    0.00 sec. (0.00 ticks)
  Sync time (average)   =    0.00 sec.
  Wait time (average)   =    0.00 sec.
                          ------------
Total (root+branch&cut) =    0.78 sec. (129.25 ticks)

Solution status = Optimal
Solution LB = 10
Solution UB = 10
Runtime = 0.786948 seconds
	Command being timed: "/home/min/git_repos/CS598MEBProject/CNT-ILP/build/cnt -s 2 ./output/k8_n30/simC_c1_k8_n30_u1_s1_del04.input-left.cnp"
	User time (seconds): 10.94
	System time (seconds): 0.12
	Percent of CPU this job got: 1311%
	Elapsed (wall clock) time (h:mm:ss or m:ss): 0:00.84
	Average shared text size (kbytes): 0
	Average unshared data size (kbytes): 0
	Average stack size (kbytes): 0
	Average total size (kbytes): 0
	Maximum resident set size (kbytes): 135348
	Average resident set size (kbytes): 0
	Major (requiring I/O) page faults: 0
	Minor (reclaiming a frame) page faults: 31831
	Voluntary context switches: 5653
	Involuntary context switches: 1483
	Swaps: 0
	File system inputs: 0
	File system outputs: 16
	Socket messages sent: 0
	Socket messages received: 0
	Signals delivered: 0
	Page size (bytes): 4096
	Exit status: 0
